data;
set WEIGHTS := x0 x1 x2 x3 x4 x5 x6 x7 x8 x9 x10 x11 x12 x13 x14 x15 x16 x17 x18 x19 x20 x21;
param:  cost :=
  x0  758
  x1  186
  x2  700
  x3  735
  x4  911
  x5  192
  x6  600
  x7  2
  x8  782
  x9  172
  x10  725
  x11  536
  x12  742
  x13  660
  x14  63
  x15  318
  x16  43
  x17  35
  x18  50
  x19  788
  x20  597
  x21  700;
param cap := 5500;